
Gurobi 12.0.2 (win64) logging started Mon Nov 10 21:26:01 2025

Set parameter LogFile to value "C:\Ioana\_uni\honours\slp\algorithm\Main_files\results\paracetamol_numaistiu\Task_005_Sample002_irr_gurobi.log"
Gurobi Optimizer version 12.0.2 build v12.0.2rc0 (win64 - Windows 11.0 (26100.2))

CPU model: Intel(R) Core(TM) Ultra 5 125H, instruction set [SSE2|AVX|AVX2]
Thread count: 14 physical cores, 18 logical processors, using up to 18 threads

Non-default parameters:
TimeLimit  2200

Optimize a model with 47236 rows, 34507 columns and 146717 nonzeros
Model fingerprint: 0x3a00b22d
Variable types: 17258 continuous, 17249 integer (17249 binary)
Coefficient statistics:
  Matrix range     [1e-04, 8e+04]
  Objective range  [1e-04, 9e-01]
  Bounds range     [1e+00, 1e+03]
  RHS range        [1e+00, 1e+00]
Presolve removed 30839 rows and 21554 columns
Presolve time: 0.34s
Presolved: 16397 rows, 12953 columns, 54581 nonzeros
Variable types: 6411 continuous, 6542 integer (6542 binary)

Root relaxation: objective 8.772216e-01, 3840 iterations, 0.36 seconds (0.81 work units)

    Nodes    |    Current Node    |     Objective Bounds      |     Work
 Expl Unexpl |  Obj  Depth IntInf | Incumbent    BestBd   Gap | It/Node Time

     0     0    0.87722    0    5          -    0.87722      -     -    0s
H    0     0                       0.9395238    0.87722  6.63%     -    0s
H    0     0                       0.9041366    0.87722  2.98%     -    0s
     0     0    0.89467    0    2    0.90414    0.89467  1.05%     -    0s
     0     0    0.89467    0    2    0.90414    0.89467  1.05%     -    1s
     0     0    0.90149    0    5    0.90414    0.90149  0.29%     -    1s
     0     0    0.90149    0    4    0.90414    0.90149  0.29%     -    1s
     0     0    0.90149    0    2    0.90414    0.90149  0.29%     -    1s

Cutting planes:
  Cover: 2
  Implied bound: 2
  MIR: 2
  Flow cover: 4
  Flow path: 1
  Relax-and-lift: 1

Explored 1 nodes (4174 simplex iterations) in 1.05 seconds (1.47 work units)
Thread count was 18 (of 18 available processors)

Solution count 2: 0.904137 0.939524 

Optimal solution found (tolerance 1.00e-04)
Best objective 9.041365976867e-01, best bound 9.041365976867e-01, gap 0.0000%
